\ Model Transportation Problem
\ LP format - for model browsing. Use MPS format to capture full model detail.
Minimize
  - x[0,0] - x[0,1] - x[0,2] - x[0,3] - x[0,4] - x[0,5] - x[0,6] - x[0,7]
   - x[0,8] - x[0,9] - x[1,0] - x[1,1] - x[1,2] - x[1,3] - x[1,4] - x[1,5]
   - x[1,6] - x[1,7] - x[1,8] - x[1,9] - x[2,0] - x[2,1] - x[2,2] - x[2,3]
   - x[2,4] - x[2,5] - x[2,6] - x[2,7] - x[2,8] - x[2,9] - x[3,0] - x[3,1]
   - x[3,2] - x[3,3] - x[3,4] - x[3,5] - x[3,6] - x[3,7] - x[3,8] - x[3,9]
   - x[4,0] - x[4,1] - x[4,2] - x[4,3] - x[4,4] - x[4,5] - x[4,6] - x[4,7]
   - x[4,8] - x[4,9] - x[5,0] - x[5,1] - x[5,2] - x[5,3] - x[5,4] - x[5,5]
   - x[5,6] - x[5,7] - x[5,8] - x[5,9] - x[6,0] - x[6,1] - x[6,2] - x[6,3]
   - x[6,4] - x[6,5] - x[6,6] - x[6,7] - x[6,8] - x[6,9] - x[7,0] - x[7,1]
   - x[7,2] - x[7,3] - x[7,4] - x[7,5] - x[7,6] - x[7,7] - x[7,8] - x[7,9]
   - x[8,0] - x[8,1] - x[8,2] - x[8,3] - x[8,4] - x[8,5] - x[8,6] - x[8,7]
   - x[8,8] - x[8,9] - x[9,0] - x[9,1] - x[9,2] - x[9,3] - x[9,4] - x[9,5]
   - x[9,6] - x[9,7] - x[9,8] - x[9,9]
Subject To
 collection_point_0: x[0,0] + x[0,1] + x[0,2] + x[0,3] + x[0,4] + x[0,5]
   + x[0,6] + x[0,7] + x[0,8] + x[0,9] <= 10
 collection_point_1: x[1,0] + x[1,1] + x[1,2] + x[1,3] + x[1,4] + x[1,5]
   + x[1,6] + x[1,7] + x[1,8] + x[1,9] <= 10
 collection_point_2: x[2,0] + x[2,1] + x[2,2] + x[2,3] + x[2,4] + x[2,5]
   + x[2,6] + x[2,7] + x[2,8] + x[2,9] <= 10
 collection_point_3: x[3,0] + x[3,1] + x[3,2] + x[3,3] + x[3,4] + x[3,5]
   + x[3,6] + x[3,7] + x[3,8] + x[3,9] <= 10
 collection_point_4: x[4,0] + x[4,1] + x[4,2] + x[4,3] + x[4,4] + x[4,5]
   + x[4,6] + x[4,7] + x[4,8] + x[4,9] <= 10
 collection_point_5: x[5,0] + x[5,1] + x[5,2] + x[5,3] + x[5,4] + x[5,5]
   + x[5,6] + x[5,7] + x[5,8] + x[5,9] <= 10
 collection_point_6: x[6,0] + x[6,1] + x[6,2] + x[6,3] + x[6,4] + x[6,5]
   + x[6,6] + x[6,7] + x[6,8] + x[6,9] <= 10
 collection_point_7: x[7,0] + x[7,1] + x[7,2] + x[7,3] + x[7,4] + x[7,5]
   + x[7,6] + x[7,7] + x[7,8] + x[7,9] <= 10
 collection_point_8: x[8,0] + x[8,1] + x[8,2] + x[8,3] + x[8,4] + x[8,5]
   + x[8,6] + x[8,7] + x[8,8] + x[8,9] <= 10
 collection_point_9: x[9,0] + x[9,1] + x[9,2] + x[9,3] + x[9,4] + x[9,5]
   + x[9,6] + x[9,7] + x[9,8] + x[9,9] <= 10
 facility_0: x[0,0] + x[1,0] + x[2,0] + x[3,0] + x[4,0] + x[5,0] + x[6,0]
   + x[7,0] + x[8,0] + x[9,0] <= 20
 facility_1: x[0,1] + x[1,1] + x[2,1] + x[3,1] + x[4,1] + x[5,1] + x[6,1]
   + x[7,1] + x[8,1] + x[9,1] <= 20
 facility_2: x[0,2] + x[1,2] + x[2,2] + x[3,2] + x[4,2] + x[5,2] + x[6,2]
   + x[7,2] + x[8,2] + x[9,2] <= 20
 facility_3: x[0,3] + x[1,3] + x[2,3] + x[3,3] + x[4,3] + x[5,3] + x[6,3]
   + x[7,3] + x[8,3] + x[9,3] <= 20
 facility_4: x[0,4] + x[1,4] + x[2,4] + x[3,4] + x[4,4] + x[5,4] + x[6,4]
   + x[7,4] + x[8,4] + x[9,4] <= 20
 facility_5: x[0,5] + x[1,5] + x[2,5] + x[3,5] + x[4,5] + x[5,5] + x[6,5]
   + x[7,5] + x[8,5] + x[9,5] <= 20
 facility_6: x[0,6] + x[1,6] + x[2,6] + x[3,6] + x[4,6] + x[5,6] + x[6,6]
   + x[7,6] + x[8,6] + x[9,6] <= 20
 facility_7: x[0,7] + x[1,7] + x[2,7] + x[3,7] + x[4,7] + x[5,7] + x[6,7]
   + x[7,7] + x[8,7] + x[9,7] <= 20
 facility_8: x[0,8] + x[1,8] + x[2,8] + x[3,8] + x[4,8] + x[5,8] + x[6,8]
   + x[7,8] + x[8,8] + x[9,8] <= 20
 facility_9: x[0,9] + x[1,9] + x[2,9] + x[3,9] + x[4,9] + x[5,9] + x[6,9]
   + x[7,9] + x[8,9] + x[9,9] <= 20
Bounds
End
